64 1000
19 128
82 798
21 387
50 729
29 170
9 273
23 110
70 362
16 993
15 849
70 266
67 473
78 315
99 705
92 249
77 332
82 611
50 611
41 555
25 553
26 922
32 35
49 649
95 455
56 17
84 910
83 679
94 3
8 113
15 646
30 852
16 444
56 812
68 166
19 749
23 445
32 546
47 56
63 582
99 542
4 871
50 235
38 539
53 897
43 947
51 720
64 225
89 967
34 572
21 109
55 205
3 345
53 387
21 651
93 968
39 921
56 998
37 390
87 395
94 542
62 182
59 845
13 779
51 148
